WARNING: for repeatability, setting FPU to use double precision
============================[ Problem Statistics ]=============================
|                                                                             |
|  Number of variables:           100                                         |
|  Number of clauses:             449                                         |
|  Parse time:                   0.00 s                                       |
|  Eliminated clauses:           0.00 Mb                                      |
|  Simplification time:          0.00 s                                       |
|                                                                             |
============================[ Search Statistics ]==============================
| Conflicts |          ORIGINAL         |          LEARNT          | Progress |
|           |    Vars  Clauses Literals |    Limit  Clauses Lit/Cl |          |
===============================================================================
|       100 |      98      446     1350 |      163      100      8 |  0.010 % |
===============================================================================
restarts              : 2
conflicts             : 142            (52965 /sec)
decisions             : 189            (0.00 % random) (70496 /sec)
propagations          : 3407           (1270794 /sec)
conflict literals     : 1060           (14.10 % deleted)
Memory used           : 13.00 MB
CPU time              : 0.002681 s

SATISFIABLE
